10235.4
0 32 39 14 29 30 79 97 17 20 57 9 50 67 11 36 64 12 46 35 16 62 98 70 24 31 34 61 63 53 81 27 69 23 75 58 82 59 28 55 2 48 96 6 85 13 40 18 52 76 41 99 95 5 22 3 87 21 66 19 68 86 77 26 42 8 44 25 15 47 43 65 94 1 49 93 78 84 45 88 4 89 56 83 90 71 54 10 60 91 92 74 73 80 33 37 7 38 51 72 
